peakDumbCharging = 11100; 
Machine = anon_enum(16); 
machineSpeed = [3700,3700,3700,3700,3700,3700,3700,3700,3700,3700,3700,3700,3700,3700,3700,3700]; 
machineLoad = [3700,3700,3700,3700,3700,3700,3700,3700,3700,3700,3700,3700,3700,3700,3700,3700]; 
Car = anon_enum(8); 
demandCar = [3280,6200,3400,29760,10160,4720,18080,5760]; 
arrivalCar = [76,72,72,70,61,58,40,31]; 
departureCar = [78,75,75,80,69,60,48,34]; 
